c Created with the Wolfram Language : www.wolfram.com
c 
p edge 70 475
e 1 2
e 4 5
e 5 6
e 3 7
e 3 8
e 5 8
e 7 8
e 6 10
e 4 11
e 6 11
e 8 11
e 10 11
e 4 12
e 5 12
e 2 13
e 6 13
e 2 14
e 11 14
e 2 15
e 3 15
e 12 16
e 6 17
e 4 18
e 9 18
e 10 18
e 4 19
e 5 19
e 2 20
e 5 20
e 10 20
e 12 20
e 13 21
e 14 21
e 18 21
e 19 21
e 3 22
e 7 22
e 14 22
e 7 23
e 11 23
e 16 23
e 4 24
e 7 24
e 8 24
e 9 24
e 12 24
e 21 24
e 4 25
e 6 25
e 7 25
e 15 25
e 18 25
e 24 25
e 8 26
e 9 26
e 11 26
e 14 26
e 25 26
e 9 27
e 10 27
e 23 27
e 6 28
e 17 28
e 23 28
e 4 29
e 8 29
e 9 29
e 17 29
e 23 29
e 26 29
e 2 30
e 6 30
e 8 30
e 11 30
e 19 30
e 21 30
e 22 30
e 1 31
e 3 31
e 7 31
e 14 31
e 16 31
e 25 31
e 1 32
e 3 32
e 4 32
e 5 32
e 12 32
e 18 32
e 20 32
e 29 32
e 9 33
e 23 33
e 28 33
e 29 33
e 31 33
e 3 34
e 4 34
e 20 34
e 21 34
e 25 34
e 27 34
e 28 34
e 29 34
e 5 35
e 7 35
e 11 35
e 14 35
e 19 35
e 20 35
e 2 36
e 3 36
e 8 36
e 15 36
e 18 36
e 24 36
e 25 36
e 26 36
e 29 36
e 33 36
e 4 37
e 30 37
e 11 38
e 16 38
e 29 38
e 35 38
e 4 39
e 5 39
e 9 39
e 13 39
e 21 39
e 8 40
e 12 40
e 13 40
e 18 40
e 25 40
e 38 40
e 1 41
e 2 41
e 3 41
e 5 41
e 7 41
e 11 41
e 24 41
e 33 41
e 2 42
e 11 42
e 13 42
e 25 42
e 27 42
e 29 42
e 3 43
e 4 43
e 12 43
e 13 43
e 14 43
e 24 43
e 27 43
e 31 43
e 33 43
e 35 43
e 5 44
e 6 44
e 8 44
e 10 44
e 11 44
e 19 44
e 30 44
e 36 44
e 43 44
e 1 45
e 2 45
e 19 45
e 20 45
e 26 45
e 31 45
e 34 45
e 39 45
e 40 45
e 42 45
e 5 46
e 7 46
e 10 46
e 14 46
e 16 46
e 17 46
e 20 46
e 24 46
e 31 46
e 36 46
e 39 46
e 45 46
e 10 47
e 12 47
e 16 47
e 24 47
e 33 47
e 39 47
e 45 47
e 6 48
e 7 48
e 9 48
e 27 48
e 33 48
e 45 48
e 46 48
e 2 49
e 7 49
e 9 49
e 31 49
e 42 49
e 13 50
e 18 50
e 19 50
e 22 50
e 24 50
e 30 50
e 35 50
e 39 50
e 41 50
e 45 50
e 48 50
e 1 51
e 5 51
e 7 51
e 13 51
e 20 51
e 22 51
e 24 51
e 27 51
e 31 51
e 36 51
e 37 51
e 40 51
e 41 51
e 49 51
e 2 52
e 7 52
e 8 52
e 9 52
e 10 52
e 12 52
e 13 52
e 18 52
e 21 52
e 22 52
e 23 52
e 24 52
e 29 52
e 30 52
e 31 52
e 33 52
e 35 52
e 42 52
e 43 52
e 44 52
e 1 53
e 4 53
e 7 53
e 11 53
e 15 53
e 16 53
e 19 53
e 27 53
e 37 53
e 38 53
e 44 53
e 2 54
e 8 54
e 9 54
e 24 54
e 29 54
e 38 54
e 43 54
e 47 54
e 3 55
e 9 55
e 13 55
e 16 55
e 21 55
e 22 55
e 26 55
e 29 55
e 32 55
e 38 55
e 40 55
e 1 56
e 3 56
e 8 56
e 9 56
e 10 56
e 11 56
e 17 56
e 21 56
e 24 56
e 28 56
e 31 56
e 36 56
e 38 56
e 42 56
e 50 56
e 51 56
e 1 57
e 4 57
e 19 57
e 24 57
e 35 57
e 40 57
e 50 57
e 51 57
e 52 57
e 56 57
e 4 58
e 6 58
e 10 58
e 20 58
e 22 58
e 31 58
e 33 58
e 35 58
e 43 58
e 44 58
e 50 58
e 51 58
e 53 58
e 1 59
e 10 59
e 12 59
e 13 59
e 14 59
e 17 59
e 18 59
e 33 59
e 39 59
e 49 59
e 51 59
e 57 59
e 12 60
e 17 60
e 24 60
e 43 60
e 44 60
e 48 60
e 51 60
e 57 60
e 12 61
e 27 61
e 28 61
e 30 61
e 37 61
e 38 61
e 40 61
e 47 61
e 49 61
e 58 61
e 8 62
e 19 62
e 30 62
e 32 62
e 35 62
e 37 62
e 38 62
e 41 62
e 60 62
e 1 63
e 10 63
e 11 63
e 16 63
e 18 63
e 21 63
e 22 63
e 26 63
e 44 63
e 45 63
e 46 63
e 54 63
e 61 63
e 2 64
e 13 64
e 15 64
e 25 64
e 28 64
e 31 64
e 35 64
e 38 64
e 44 64
e 48 64
e 49 64
e 51 64
e 59 64
e 62 64
e 2 65
e 10 65
e 13 65
e 14 65
e 15 65
e 19 65
e 21 65
e 22 65
e 26 65
e 30 65
e 32 65
e 41 65
e 43 65
e 45 65
e 48 65
e 55 65
e 59 65
e 60 65
e 63 65
e 7 66
e 9 66
e 16 66
e 25 66
e 27 66
e 29 66
e 37 66
e 38 66
e 39 66
e 45 66
e 46 66
e 47 66
e 49 66
e 54 66
e 65 66
e 4 67
e 7 67
e 17 67
e 20 67
e 46 67
e 54 67
e 58 67
e 61 67
e 62 67
e 65 67
e 3 68
e 7 68
e 8 68
e 10 68
e 12 68
e 25 68
e 30 68
e 34 68
e 42 68
e 43 68
e 45 68
e 46 68
e 57 68
e 60 68
e 61 68
e 62 68
e 64 68
e 66 68
e 67 68
e 3 69
e 9 69
e 11 69
e 21 69
e 28 69
e 34 69
e 35 69
e 40 69
e 48 69
e 50 69
e 58 69
e 59 69
e 61 69
e 62 69
e 68 69
e 5 70
e 9 70
e 10 70
e 21 70
e 39 70
e 58 70
